language Essence 1.3

letting blksize_delta be
        function(1 --> 9, 2 --> 8, 3 --> 8, 4 --> 8, 5 --> 8, 6 --> 8, 7 --> 9, 8 --> 8, 9 --> 8, 10 --> 8, 11 --> 8,
                 12 --> 8, 13 --> 9, 14 --> 8, 15 --> 8, 16 --> 8, 17 --> 8, 18 --> 8, 19 --> 8)
letting maxcars be
        function(1 --> 10, 2 --> 10, 3 --> 10, 4 --> 10, 5 --> 10, 6 --> 10, 7 --> 10, 8 --> 10, 9 --> 10, 10 --> 10,
                 11 --> 10, 12 --> 10, 13 --> 10, 14 --> 10, 15 --> 10, 16 --> 10, 17 --> 10, 18 --> 10, 19 --> 10)
letting n_cars be 214
letting n_classes be 44
letting n_options be 19
letting quantity be
        function(1 --> 4, 2 --> 4, 3 --> 4, 4 --> 4, 5 --> 4, 6 --> 27, 7 --> 4, 8 --> 4, 9 --> 4, 10 --> 4, 11 --> 16,
                 12 --> 6, 13 --> 4, 14 --> 4, 15 --> 4, 16 --> 4, 17 --> 5, 18 --> 4, 19 --> 4, 20 --> 4, 21 --> 4,
                 22 --> 4, 23 --> 4, 24 --> 4, 25 --> 4, 26 --> 4, 27 --> 4, 28 --> 4, 29 --> 4, 30 --> 4, 31 --> 4,
                 32 --> 4, 33 --> 4, 34 --> 4, 35 --> 4, 36 --> 4, 37 --> 4, 38 --> 4, 39 --> 4, 40 --> 4, 41 --> 4,
                 42 --> 4, 43 --> 4, 44 --> 4)
letting usage be
        relation((1, 19), (2, 10), (3, 2), (4, 14), (5, 8), (5, 15), (6, 7), (7, 12), (7, 15), (7, 18), (8, 15),
                 (8, 17), (8, 19), (9, 4), (9, 18), (10, 7), (11, 15), (11, 19), (12, 19), (13, 4), (13, 6), (13, 9),
                 (14, 19), (15, 5), (15, 12), (16, 12), (17, 19), (18, 19), (19, 12), (19, 19), (20, 6), (20, 15),
                 (20, 16), (20, 18), (21, 9), (21, 19), (22, 6), (22, 7), (22, 11), (23, 19), (24, 2), (24, 3), (25, 8),
                 (25, 14), (26, 1), (26, 6), (26, 16), (27, 16), (27, 18), (28, 3), (28, 10), (29, 1), (29, 8),
                 (29, 12), (29, 14), (30, 6), (30, 8), (30, 9), (30, 10), (30, 13), (31, 4), (31, 12), (32, 9),
                 (33, 12), (34, 7), (34, 10), (34, 12), (34, 16), (35, 1), (35, 7), (36, 8), (36, 13), (37, 2), (37, 5),
                 (37, 13), (37, 14), (38, 6), (39, 9), (39, 10), (40, 6), (40, 14), (40, 17), (41, 4), (41, 12),
                 (42, 2), (42, 9), (42, 15), (42, 18), (43, 1), (43, 8), (43, 10), (44, 6), (44, 15))
$ Visualisation for usage
$  1 19
$  2 10
$  3  2
$  4 14
$  5  8
$  5 15
$  6  7
$  7 12
$  7 15
$  7 18
$  8 15
$  8 17
$  8 19
$  9  4
$  9 18
$ 10  7
$ 11 15
$ 11 19
$ 12 19
$ 13  4
$ 13  6
$ 13  9
$ 14 19
$ 15  5
$ 15 12
$ 16 12
$ 17 19
$ 18 19
$ 19 12
$ 19 19
$ 20  6
$ 20 15
$ 20 16
$ 20 18
$ 21  9
$ 21 19
$ 22  6
$ 22  7
$ 22 11
$ 23 19
$ 24  2
$ 24  3
$ 25  8
$ 25 14
$ 26  1
$ 26  6
$ 26 16
$ 27 16
$ 27 18
$ 28  3
$ 28 10
$ 29  1
$ 29  8
$ 29 12
$ 29 14
$ 30  6
$ 30  8
$ 30  9
$ 30 10
$ 30 13
$ 31  4
$ 31 12
$ 32  9
$ 33 12
$ 34  7
$ 34 10
$ 34 12
$ 34 16
$ 35  1
$ 35  7
$ 36  8
$ 36 13
$ 37  2
$ 37  5
$ 37 13
$ 37 14
$ 38  6
$ 39  9
$ 39 10
$ 40  6
$ 40 14
$ 40 17
$ 41  4
$ 41 12
$ 42  2
$ 42  9
$ 42 15
$ 42 18
$ 43  1
$ 43  8
$ 43 10
$ 44  6
$ 44 15

